c 
c G(k,n,p) graph
c graph gen seed     : 4349
c number of vertices : 70
c max number of edges: 1225
c number of classes  : 2
c edge density       : 0.400000
c edge probability   : 0.800000
c data structure     : dense
c
c           Graph Stats
c number of vertices  : 70
c nonisolated vertices: 70
c number of edges     : 982
c edge density        : 0.406625
c max degree          : 36
c avg degree          : 28.06
c min degree          : 21
p col 70 982
e 1 5
e 1 7
e 1 8
e 1 9
e 1 10
e 1 15
e 1 16
e 1 20
e 1 36
e 1 38
e 1 40
e 1 45
e 1 46
e 1 48
e 1 50
e 1 51
e 1 52
e 1 53
e 1 59
e 1 60
e 1 62
e 1 67
e 1 68
e 2 5
e 2 8
e 2 9
e 2 11
e 2 14
e 2 18
e 2 20
e 2 23
e 2 25
e 2 26
e 2 31
e 2 34
e 2 36
e 2 38
e 2 41
e 2 45
e 2 46
e 2 48
e 2 51
e 2 52
e 2 53
e 2 59
e 2 60
e 2 62
e 2 67
e 2 68
e 3 5
e 3 7
e 3 8
e 3 14
e 3 15
e 3 16
e 3 18
e 3 23
e 3 25
e 3 26
e 3 31
e 3 34
e 3 38
e 3 40
e 3 48
e 3 50
e 3 52
e 3 53
e 3 59
e 3 60
e 3 67
e 4 5
e 4 7
e 4 9
e 4 10
e 4 11
e 4 14
e 4 15
e 4 16
e 4 18
e 4 20
e 4 23
e 4 25
e 4 26
e 4 31
e 4 36
e 4 38
e 4 40
e 4 41
e 4 45
e 4 48
e 4 50
e 4 51
e 4 53
e 4 57
e 4 59
e 4 62
e 4 67
e 5 6
e 5 12
e 5 19
e 5 21
e 5 22
e 5 24
e 5 27
e 5 28
e 5 29
e 5 30
e 5 37
e 5 39
e 5 42
e 5 44
e 5 47
e 5 49
e 5 54
e 5 55
e 5 58
e 5 61
e 5 64
e 5 65
e 5 66
e 5 69
e 5 70
e 6 7
e 6 8
e 6 9
e 6 10
e 6 11
e 6 14
e 6 15
e 6 16
e 6 18
e 6 20
e 6 23
e 6 25
e 6 26
e 6 31
e 6 34
e 6 36
e 6 38
e 6 40
e 6 41
e 6 45
e 6 46
e 6 48
e 6 50
e 6 51
e 6 53
e 6 59
e 6 62
e 6 67
e 6 68
e 7 12
e 7 13
e 7 19
e 7 21
e 7 22
e 7 24
e 7 27
e 7 29
e 7 30
e 7 32
e 7 35
e 7 37
e 7 39
e 7 42
e 7 44
e 7 47
e 7 54
e 7 55
e 7 56
e 7 58
e 7 61
e 7 63
e 7 65
e 7 66
e 7 69
e 7 70
e 8 12
e 8 17
e 8 19
e 8 22
e 8 27
e 8 28
e 8 29
e 8 32
e 8 33
e 8 35
e 8 37
e 8 39
e 8 42
e 8 43
e 8 44
e 8 47
e 8 49
e 8 54
e 8 56
e 8 58
e 8 63
e 8 64
e 8 65
e 8 66
e 8 69
e 8 70
e 9 12
e 9 13
e 9 17
e 9 19
e 9 21
e 9 22
e 9 24
e 9 27
e 9 28
e 9 29
e 9 33
e 9 35
e 9 37
e 9 39
e 9 42
e 9 43
e 9 49
e 9 54
e 9 55
e 9 56
e 9 58
e 9 61
e 9 63
e 9 65
e 9 66
e 9 69
e 9 70
e 10 13
e 10 19
e 10 22
e 10 24
e 10 27
e 10 28
e 10 29
e 10 30
e 10 32
e 10 33
e 10 35
e 10 37
e 10 39
e 10 42
e 10 43
e 10 47
e 10 49
e 10 54
e 10 56
e 10 61
e 10 63
e 10 64
e 10 65
e 10 66
e 10 69
e 10 70
e 11 12
e 11 13
e 11 17
e 11 19
e 11 21
e 11 22
e 11 24
e 11 27
e 11 28
e 11 29
e 11 30
e 11 32
e 11 33
e 11 35
e 11 39
e 11 42
e 11 43
e 11 47
e 11 54
e 11 56
e 11 58
e 11 61
e 11 63
e 11 64
e 11 65
e 11 70
e 12 14
e 12 15
e 12 16
e 12 18
e 12 20
e 12 23
e 12 26
e 12 31
e 12 36
e 12 38
e 12 40
e 12 48
e 12 51
e 12 57
e 12 59
e 12 60
e 12 67
e 12 68
e 13 14
e 13 15
e 13 16
e 13 20
e 13 23
e 13 25
e 13 26
e 13 31
e 13 34
e 13 36
e 13 38
e 13 40
e 13 46
e 13 48
e 13 50
e 13 51
e 13 53
e 13 57
e 13 59
e 13 60
e 13 62
e 13 67
e 13 68
e 14 17
e 14 19
e 14 21
e 14 22
e 14 24
e 14 27
e 14 28
e 14 29
e 14 30
e 14 33
e 14 37
e 14 39
e 14 42
e 14 44
e 14 47
e 14 49
e 14 54
e 14 55
e 14 56
e 14 58
e 14 61
e 14 63
e 14 64
e 14 66
e 14 69
e 14 70
e 15 17
e 15 19
e 15 22
e 15 24
e 15 27
e 15 28
e 15 29
e 15 30
e 15 32
e 15 33
e 15 35
e 15 37
e 15 39
e 15 42
e 15 43
e 15 44
e 15 49
e 15 54
e 15 56
e 15 61
e 15 63
e 15 64
e 15 65
e 15 66
e 15 69
e 15 70
e 16 17
e 16 19
e 16 21
e 16 22
e 16 24
e 16 27
e 16 28
e 16 29
e 16 30
e 16 32
e 16 33
e 16 39
e 16 42
e 16 43
e 16 47
e 16 49
e 16 55
e 16 56
e 16 61
e 16 63
e 16 64
e 16 65
e 16 66
e 16 69
e 16 70
e 17 18
e 17 23
e 17 25
e 17 34
e 17 36
e 17 38
e 17 45
e 17 48
e 17 50
e 17 51
e 17 52
e 17 57
e 17 59
e 17 60
e 17 62
e 17 67
e 17 68
e 18 19
e 18 21
e 18 22
e 18 24
e 18 27
e 18 29
e 18 30
e 18 32
e 18 33
e 18 35
e 18 37
e 18 39
e 18 42
e 18 43
e 18 44
e 18 47
e 18 54
e 18 55
e 18 56
e 18 61
e 18 63
e 18 69
e 18 70
e 19 23
e 19 25
e 19 26
e 19 31
e 19 34
e 19 36
e 19 38
e 19 40
e 19 41
e 19 45
e 19 46
e 19 48
e 19 51
e 19 52
e 19 53
e 19 57
e 19 59
e 19 60
e 19 62
e 19 67
e 20 21
e 20 24
e 20 27
e 20 28
e 20 30
e 20 32
e 20 33
e 20 35
e 20 37
e 20 39
e 20 42
e 20 43
e 20 54
e 20 55
e 20 56
e 20 58
e 20 61
e 20 63
e 20 64
e 20 66
e 20 69
e 20 70
e 21 23
e 21 25
e 21 31
e 21 34
e 21 36
e 21 38
e 21 40
e 21 41
e 21 46
e 21 48
e 21 52
e 21 53
e 21 57
e 21 60
e 21 62
e 21 67
e 21 68
e 22 23
e 22 25
e 22 31
e 22 34
e 22 36
e 22 38
e 22 41
e 22 45
e 22 46
e 22 48
e 22 50
e 22 51
e 22 52
e 22 53
e 22 57
e 22 59
e 22 67
e 23 24
e 23 27
e 23 28
e 23 29
e 23 30
e 23 32
e 23 33
e 23 35
e 23 37
e 23 39
e 23 42
e 23 43
e 23 47
e 23 54
e 23 55
e 23 63
e 23 64
e 23 65
e 23 66
e 23 70
e 24 25
e 24 26
e 24 34
e 24 36
e 24 38
e 24 40
e 24 41
e 24 45
e 24 46
e 24 48
e 24 51
e 24 52
e 24 53
e 24 57
e 24 60
e 24 62
e 25 27
e 25 28
e 25 29
e 25 32
e 25 33
e 25 35
e 25 37
e 25 42
e 25 43
e 25 44
e 25 47
e 25 49
e 25 54
e 25 55
e 25 56
e 25 58
e 25 61
e 25 63
e 25 64
e 25 65
e 25 66
e 25 70
e 26 27
e 26 28
e 26 29
e 26 30
e 26 33
e 26 35
e 26 37
e 26 39
e 26 42
e 26 43
e 26 44
e 26 47
e 26 49
e 26 54
e 26 55
e 26 56
e 26 58
e 26 61
e 26 63
e 26 64
e 26 65
e 26 66
e 26 69
e 26 70
e 27 31
e 27 34
e 27 36
e 27 38
e 27 41
e 27 45
e 27 46
e 27 48
e 27 51
e 27 52
e 27 53
e 27 57
e 27 62
e 27 67
e 27 68
e 28 31
e 28 34
e 28 36
e 28 38
e 28 40
e 28 41
e 28 46
e 28 48
e 28 50
e 28 51
e 28 52
e 28 57
e 28 60
e 28 62
e 28 67
e 28 68
e 29 31
e 29 36
e 29 38
e 29 40
e 29 46
e 29 48
e 29 50
e 29 52
e 29 59
e 29 60
e 30 31
e 30 34
e 30 36
e 30 38
e 30 40
e 30 41
e 30 46
e 30 48
e 30 50
e 30 52
e 30 53
e 30 59
e 30 60
e 30 62
e 30 67
e 31 32
e 31 33
e 31 35
e 31 37
e 31 42
e 31 43
e 31 44
e 31 47
e 31 49
e 31 55
e 31 56
e 31 58
e 31 61
e 31 63
e 31 64
e 31 65
e 31 66
e 31 69
e 31 70
e 32 34
e 32 36
e 32 38
e 32 40
e 32 41
e 32 45
e 32 48
e 32 50
e 32 52
e 32 53
e 32 59
e 32 60
e 32 62
e 32 67
e 32 68
e 33 34
e 33 38
e 33 40
e 33 41
e 33 45
e 33 48
e 33 50
e 33 51
e 33 52
e 33 53
e 33 57
e 33 60
e 33 62
e 34 35
e 34 43
e 34 44
e 34 47
e 34 49
e 34 54
e 34 56
e 34 58
e 34 61
e 34 63
e 34 66
e 35 36
e 35 38
e 35 41
e 35 45
e 35 46
e 35 48
e 35 50
e 35 52
e 35 53
e 35 57
e 35 60
e 35 62
e 35 67
e 35 68
e 36 37
e 36 39
e 36 42
e 36 43
e 36 44
e 36 47
e 36 54
e 36 55
e 36 56
e 36 58
e 36 61
e 36 63
e 36 64
e 36 65
e 36 66
e 36 69
e 37 38
e 37 40
e 37 41
e 37 45
e 37 46
e 37 48
e 37 50
e 37 51
e 37 53
e 37 59
e 37 60
e 37 62
e 37 67
e 37 68
e 38 39
e 38 42
e 38 43
e 38 44
e 38 47
e 38 49
e 38 54
e 38 55
e 38 56
e 38 58
e 38 64
e 38 65
e 38 66
e 38 69
e 38 70
e 39 40
e 39 41
e 39 46
e 39 48
e 39 52
e 39 53
e 39 59
e 39 60
e 39 62
e 39 67
e 39 68
e 40 42
e 40 43
e 40 47
e 40 49
e 40 54
e 40 55
e 40 56
e 40 58
e 40 61
e 40 64
e 40 65
e 40 66
e 40 69
e 40 70
e 41 42
e 41 43
e 41 44
e 41 47
e 41 49
e 41 54
e 41 55
e 41 58
e 41 61
e 41 64
e 41 69
e 41 70
e 42 45
e 42 46
e 42 48
e 42 50
e 42 52
e 42 53
e 42 57
e 42 59
e 42 62
e 42 67
e 42 68
e 43 45
e 43 46
e 43 48
e 43 50
e 43 51
e 43 53
e 43 57
e 43 59
e 43 60
e 43 62
e 43 67
e 44 46
e 44 48
e 44 50
e 44 51
e 44 52
e 44 60
e 44 62
e 44 67
e 44 68
e 45 47
e 45 49
e 45 54
e 45 55
e 45 56
e 45 61
e 45 64
e 45 65
e 45 66
e 45 70
e 46 47
e 46 49
e 46 56
e 46 58
e 46 61
e 46 63
e 46 64
e 46 65
e 46 66
e 46 70
e 47 48
e 47 51
e 47 59
e 47 60
e 47 62
e 47 67
e 47 68
e 48 49
e 48 54
e 48 55
e 48 56
e 48 58
e 48 61
e 48 63
e 48 65
e 48 66
e 48 69
e 48 70
e 49 50
e 49 51
e 49 53
e 49 57
e 49 59
e 49 60
e 49 67
e 49 68
e 50 54
e 50 55
e 50 56
e 50 58
e 50 61
e 50 63
e 50 64
e 50 65
e 50 70
e 51 54
e 51 55
e 51 58
e 51 61
e 51 65
e 51 66
e 51 69
e 51 70
e 52 54
e 52 55
e 52 56
e 52 58
e 52 61
e 52 63
e 52 64
e 52 65
e 52 66
e 52 69
e 52 70
e 53 54
e 53 55
e 53 56
e 53 58
e 53 61
e 53 63
e 53 64
e 53 65
e 53 66
e 53 69
e 53 70
e 54 57
e 54 59
e 54 60
e 54 62
e 54 67
e 54 68
e 55 57
e 55 59
e 55 60
e 55 62
e 55 67
e 55 68
e 56 57
e 56 60
e 56 62
e 56 67
e 56 68
e 57 63
e 57 64
e 57 65
e 57 66
e 57 69
e 57 70
e 58 59
e 58 60
e 58 62
e 58 67
e 58 68
e 59 63
e 59 64
e 59 65
e 59 66
e 59 69
e 59 70
e 60 61
e 60 63
e 60 64
e 60 65
e 60 66
e 60 69
e 60 70
e 61 62
e 61 67
e 61 68
e 62 63
e 62 64
e 62 65
e 62 70
e 63 67
e 63 68
e 64 67
e 64 68
e 65 67
e 65 68
e 66 68
e 67 70
e 68 69
e 68 70
